[[87, 86, 95, 94, 93, 92, 91, 83, 82, 73, 74, 75, 84, 85, 76, 77, 78, 69, 68, 67, 66, 59, 60, 49, 58, 57, 56, 65, 64, 55, 46, 47, 38, 48, 39, 40, 41, 32, 31, 30, 29, 37, 28, 19, 20, 21, 22, 13, 12, 11], [10, 2, 3, 4, 14, 5, 6, 7, 8, 9, 18, 17, 16, 15, 23, 24, 25, 26, 27, 35, 36, 44, 34, 43, 33, 42, 50, 51, 52, 45, 54, 53, 63, 62, 61, 70, 71, 72, 81, 80, 79, 88, 89, 90, 99, 98, 97, 96]]